networks/zoo_18_43/zoo_18_43-lower.txt
Number of groups: 7
Flow 1: {1 4 0} {4 2 0} {2 12 0} 
Flow 2: {4 3 0} {3 13 0} 
Flow 3: {4 14 0} 
Flow 4: {4 5 0} {5 15 0} 
Flow 5: {4 7 0} {7 17 0} 
Flow 6: {1 8 0} {8 18 0} 
Flow 7: {2 4 0} Flow 10: {4 8 0} Flow 11: {3 4 0} Flow 15: {4 1 0} {1 11 0} 
Flow 21: {5 4 0} Flow 25: {6 5 0} Flow 28: {6 7 0} Flow 30: {7 4 0} Flow 33: {8 1 0} Flow 34: {8 4 0} Flow 39: {9 8 0} Time taken running everything: 0 seconds
