networks/zoo_18_43/zoo_18_43-lower.sol
<?xml version = "1.0" encoding="UTF-8" standalone="yes"?>
<CPLEXSolution version="1.2">
 <header
   problemName="networks/zoo_18_43/zoo_18_43-lower.lp"
   solutionName="incumbent"
   solutionIndex="-1"
   objectiveValue="7"
   solutionTypeValue="3"
   solutionTypeString="primal"
   solutionStatusValue="101"
   solutionStatusString="integer optimal solution"
   solutionMethodString="mip"
   primalFeasible="1"
   dualFeasible="1"
   MIPNodes="0"
   MIPIterations="0"
   writeLevel="3"/>
 <quality
   epInt="1.0000000000000001e-05"
   epRHS="9.9999999999999995e-07"
   maxIntInfeas="0"
   maxPrimalInfeas="0"
   maxX="1"
   maxSlack="1"/>
 <variables>
  <variable name="Y(1,2)" index="1" value="1"/>
  <variable name="Y(2,3)" index="18" value="1"/>
  <variable name="Y(3,4)" index="35" value="1"/>
  <variable name="Y(4,5)" index="52" value="1"/>
  <variable name="Y(5,7)" index="70" value="1"/>
  <variable name="Y(6,8)" index="87" value="1"/>
  <variable name="Y(15,1)" index="224" value="1"/>
  <variable name="X(1,4,1)" index="688" value="1"/>
  <variable name="X(1,8,6)" index="736" value="1"/>
  <variable name="X(1,11,15)" index="788" value="1"/>
  <variable name="X(2,4,7)" index="823" value="1"/>
  <variable name="X(2,12,1)" index="860" value="1"/>
  <variable name="X(3,4,11)" index="913" value="1"/>
  <variable name="X(3,13,2)" index="947" value="1"/>
  <variable name="X(4,1,15)" index="1003" value="1"/>
  <variable name="X(4,2,1)" index="1032" value="1"/>
  <variable name="X(4,3,2)" index="1076" value="1"/>
  <variable name="X(4,5,4)" index="1121" value="1"/>
  <variable name="X(4,7,5)" index="1165" value="1"/>
  <variable name="X(4,8,10)" index="1213" value="1"/>
  <variable name="X(4,14,3)" index="1249" value="1"/>
  <variable name="X(5,4,21)" index="1310" value="1"/>
  <variable name="X(5,15,4)" index="1336" value="1"/>
  <variable name="X(6,5,25)" index="1400" value="1"/>
  <variable name="X(6,7,28)" index="1446" value="1"/>
  <variable name="X(7,4,30)" index="1491" value="1"/>
  <variable name="X(7,17,5)" index="1509" value="1"/>
  <variable name="X(8,1,33)" index="1580" value="1"/>
  <variable name="X(8,4,34)" index="1624" value="1"/>
  <variable name="X(8,18,6)" index="1639" value="1"/>
  <variable name="X(9,8,39)" index="1715" value="1"/>
 </variables>
</CPLEXSolution>
